100
237 104 397 155 67 402 918 801 766 222 537 277 173 107 215 928 829 807 801 194 310 627 732 855 881 87 606 672 506 178 474 90 935 866 548 301 909 573 883 849 509 414 599 432 162 306 813 44 47 627 281 535 472 343 998 196 413 203 633 277 356 747 321 559 905 101 62 229 766 616 238 332 178 460 43 698 896 955 735 960 19 289 967 776 411 944 621 818 294 192 445 137 382 962 332 10 45 170 784 363 
437 304 597 355 267 702 1218 1001 966 522 737 477 373 307 415 1128 1029 1007 1001 394 510 827 1032 1055 1081 287 906 972 706 378 774 390 1135 1066 748 501 1109 773 1083 1049 709 714 799 732 462 606 1013 244 247 827 481 735 672 543 1198 396 613 403 833 477 556 947 521 759 1105 301 262 429 966 816 438 532 378 660 243 898 1096 1155 935 1260 219 489 1167 976 611 1144 821 1018 594 492 645 337 582 1162 532 210 245 370 984 563 
23880
